nb_edges = 45;
e_name = ["aa", "ab", "ac", "ad", "ae", "af", "ag", "ah", "ai", "aj", "ak", "al", "am", "an", "ao", "ap", "aq", "ar", "as", "at", "au", "av", "aw", "ax", "ay", "az", "ba", "bb", "bc", "bd", "be", "bf", "bg", "bh", "bi", "bj", "bk", "bl", "bm", "bn", "bo", "bp", "bq", "br", "bs"];
e_type = [border, border, inter, inter, inter, inter, inter, inter, inter, inter, inter, inter, inter, inter, inter, platform, platform, platform, platform, platform, platform, platform, platform, platform, platform, platform, platform, platform, platform, platform, inter, inter, inter, inter, inter, inter, inter, inter, inter, inter, inter, inter, inter, border, border];
e_cols = [{1}, {2}, {3}, {4}, {5}, {6}, {6}, {7}, {8, 9}, {8}, {8}, {9}, {9}, {9}, {9}, {10}, {10}, {10}, {10}, {10}, {11}, {11}, {11}, {11}, {11}, {12}, {12}, {12}, {12}, {12}, {13, 14}, {13}, {13}, {13}, {13}, {14}, {14}, {15}, {15}, {16}, {17}, {18}, {19}, {20}, {21}];
nb_trains = 9;
t_name = ["T1", "T2", "T3", "T4", "T5", "T6", "T7", "T8", "T9"];
t_routes = [{1, 2, 3, 4, 5}, {6}, {7}, {8}, {9}, {10}, {11}, {12}, {13}];
t_est = [1105, 259, 865, 741, 835, 441, 259, 259, 259];
t_type = [pass, origin, vanish, vanish, vanish, origin, reverse, reverse, reverse];
nb_routes = 13;
r_name = ["IW1-I1E", "IW2-I2E", "IW3-I3E", "IW4-I4E", "IW5-I5E", "I5E", "IE3", "IW5", "IW4", "I2E", "I2E-I2E", "IE3-I3E", "I5E-I5E"];
r_it_1 = ["IW1", "IW2", "IW3", "IW4", "IW5", "I5E", "IE3", "IW5", "IW4", "I2E", "I2E", "IE3", "I5E"];
r_it_2 = ["I1E", "I2E", "I3E", "I4E", "I5E", "", "", "", "", "", "I2E", "I3E", "I5E"];
r_platform_name = ["S_I", "S_II", "S_III", "S_IV", "S_V", "S_V", "S_III", "S_V", "S_IV", "S_II", "S_II", "S_III", "S_V"];
r_dwell_min = [100, 100, 100, 100, 100, 0, 100, 100, 100, 0, 100, 100, 100];
r_dur_min = [120, 120, 120, 120, 120, 60, 60, 60, 60, 60, 120, 120, 120];
r_overlap = [1, 1, 1, 1, 1, 0, 0, 0, 0, 0, 1, 1, 1];
r_block_start = [1, 12, 25, 38, 51, 64, 72, 80, 88, 96, 104, 112, 125];
r_block_end = [11, 24, 37, 50, 63, 71, 79, 87, 95, 103, 111, 124, 132];
r_train = [1, 1, 1, 1, 1, 2, 3, 4, 5, 6, 7, 8, 9];
nb_blocks = 132;
b_edge = [1, 3, 6, 9, 16, 21, 26, 31, 38, 41, 44, 1, 3, 6, 10, 12, 17, 22, 27, 32, 36, 38, 41, 44, 1, 3, 6, 10, 13, 18, 23, 28, 33, 36, 38, 41, 44, 1, 3, 7, 11, 14, 19, 24, 29, 34, 37, 39, 41, 44, 1, 3, 7, 11, 15, 20, 25, 30, 35, 37, 39, 41, 44, 20, 25, 30, 35, 37, 39, 41, 44, 45, 42, 38, 36, 33, 28, 23, 18, 1, 3, 7, 11, 15, 20, 25, 30, 1, 3, 7, 11, 14, 19, 24, 29, 17, 22, 27, 32, 36, 38, 41, 44, 17, 22, 27, 32, 36, 38, 41, 44, 45, 42, 38, 36, 33, 28, 23, 18, 33, 36, 38, 41, 44, 20, 25, 30, 35, 37, 39, 41, 44];
b_dur = [8, 17, 25, 34, 42, 51, 61, 15, 30, 45, 60, 7, 15, 22, 30, 37, 45, 52, 61, 12, 24, 36, 48, 60, 7, 15, 22, 30, 37, 45, 52, 61, 12, 24, 36, 48, 60, 7, 15, 22, 30, 37, 45, 52, 61, 12, 24, 36, 48, 60, 7, 15, 22, 30, 37, 45, 52, 61, 12, 24, 36, 48, 60, 0, 0, 0, 12, 24, 36, 48, 60, 7, 15, 22, 30, 37, 45, 52, 60, 7, 15, 22, 30, 37, 45, 52, 60, 7, 15, 22, 30, 37, 45, 52, 60, 0, 0, 0, 12, 24, 36, 48, 60, 0, 0, 0, 12, 24, 36, 48, 60, 7, 15, 22, 30, 37, 45, 52, 60, 12, 24, 36, 48, 60, 0, 0, 0, 12, 24, 36, 48, 60];
b_start_offset = [0, -8, -17, -25, -34, -42, -51, -1, -15, -30, -45, 0, -7, -15, -22, -30, -37, -45, -52, -1, -12, -24, -36, -48, 0, -7, -15, -22, -30, -37, -45, -52, -1, -12, -24, -36, -48, 0, -7, -15, -22, -30, -37, -45, -52, -1, -12, -24, -36, -48, 0, -7, -15, -22, -30, -37, -45, -52, -1, -12, -24, -36, -48, 0, 0, 0, 0, -12, -24, -36, -48, 0, -7, -15, -22, -30, -37, -45, -52, 0, -7, -15, -22, -30, -37, -45, -52, 0, -7, -15, -22, -30, -37, -45, -52, 0, 0, 0, 0, -12, -24, -36, -48, 0, 0, 0, -1, -12, -24, -36, -48, 0, -7, -15, -22, -30, -37, -45, -52, -1, -12, -24, -36, -48, 0, 0, 0, -1, -12, -24, -36, -48];
b_stop = [false, false, false, false, false, false, true, false, false, false, false, false, false, false, false, false, false, false, true, false, false, false, false, false, false, false, false, false, false, false, false, true, false, false, false, false, false, false, false, false, false, false, false, false, true, false, false, false, false, false, false, false, false, false, false, false, false, true, false, false, false, false, false, true, true, true, false, false, false, false, false, false, false, false, false, false, false, false, true, false, false, false, false, false, false, false, true, false, false, false, false, false, false, false, true, true, true, true, false, false, false, false, false, true, true, true, false, false, false, false, false, false, false, false, false, false, false, false, true, false, false, false, false, false, true, true, true, false, false, false, false, false];
b_route = [1, 1, 1, 1, 1, 1, 1, 1, 1, 1, 1, 2, 2, 2, 2, 2, 2, 2, 2, 2, 2, 2, 2, 2, 3, 3, 3, 3, 3, 3, 3, 3, 3, 3, 3, 3, 3, 4, 4, 4, 4, 4, 4, 4, 4, 4, 4, 4, 4, 4, 5, 5, 5, 5, 5, 5, 5, 5, 5, 5, 5, 5, 5, 6, 6, 6, 6, 6, 6, 6, 6, 7, 7, 7, 7, 7, 7, 7, 7, 8, 8, 8, 8, 8, 8, 8, 8, 9, 9, 9, 9, 9, 9, 9, 9, 10, 10, 10, 10, 10, 10, 10, 10, 11, 11, 11, 11, 11, 11, 11, 11, 12, 12, 12, 12, 12, 12, 12, 12, 12, 12, 12, 12, 12, 13, 13, 13, 13, 13, 13, 13, 13];
